4 
5  08 23 38 51 58 
6  06 13 23 30 38 45 53 
7  00 08 15 23 30 38 45 53 
8  00 08 15 23 30 38 45 53 
9  00 08 15 23 30 38 45 57 
10  04 12 19 27 34 42 49 57 
11  04 12 19 27 34 42 49 57 
12  04 12 19 27 34 42 49 57 
13  04 12 19 27 34 42 49 57 
14  04 12 19 27 34 42 49 57 
15  08 16 23 30 38 46 53 
16  01 08 16 23 31 38 46 53 
17  01 08 16 23 31 38 46 53 
18  02 08 17 23 32 38 47 53 
19  01 12 19 27 34 42 49 59 
20  09 17 25 39 53 
21  08 23 38 53 
22  08 19 34 49 
23  04 24 
0 
